0 1340
1 1317
2 1294
3 1269
4 1249
5 1235
6 1220
7 1198
8 1185
9 1173
10 1166
11 1158
12 1145
13 1132
14 1128
15 1118
16 1110
17 1107
18 1099
19 1087
20 1076
21 1069
22 1061
23 1055
24 1045
25 1043
26 1041
27 1032
28 1031
29 1026
30 1022
31 1015
32 1009
33 1003
34 996
35 993
36 986
37 981
38 979
39 976
40 972
41 964
42 959
43 957
44 952
45 951
46 948
47 938
48 934
49 932
50 927
51 921
52 915
53 906
54 904
55 896
56 891
57 887
58 883
59 878
60 872
61 865
62 860
63 850
64 845
65 835
66 829
67 823
68 817
69 812
70 808
71 805
72 799
73 797
74 794
75 790
76 781
77 777
78 772
79 767
80 763
81 758
82 753
83 747
84 738
85 733
86 726
87 723
88 719
89 716
90 709
91 704
92 701
93 697
94 694
95 690
96 688
97 684
98 682
99 680
100 677
101 672
102 670
103 665
104 663
105 662
106 658
107 651
108 648
109 645
110 641
111 638
112 637
113 633
114 631
115 629
116 625
117 622
118 620
119 617
120 615
121 613
122 610
123 607
124 604
125 601
126 600
127 599
128 597
129 594
130 592
131 590
132 588
133 587
134 584
135 580
136 579
137 576
138 574
139 571
140 569
141 568
142 566
143 563
144 562
145 561
146 559
147 556
148 554
149 551
150 550
151 549
152 545
153 544
154 544
155 541
156 540
157 538
158 537
159 533
160 533
161 531
162 529
163 528
164 526
165 525
166 524
167 522
168 521
169 520
170 519
171 517
172 515
173 513
174 511
175 510
176 509
177 508
178 507
179 506
180 505
181 503
182 502
183 501
184 499
185 497
186 496
187 496
188 494
189 494
190 492
191 492
192 490
193 489
194 488
195 486
196 485
197 484
198 483
199 482
200 481
201 480
202 479
203 478
204 478
205 477
206 476
207 476
208 476
209 474
210 473
211 472
212 472
213 472
214 471
215 471
216 471
217 469
218 469
219 468
220 468
221 467
222 467
223 466
224 466
225 466
226 465
227 465
228 464
229 464
230 463
231 463
232 463
233 462
234 462
235 462
236 461
237 461
238 461
239 460
240 460
241 460
242 460
243 460
244 460
245 459
246 459
247 459
248 458
249 458
